Route #1: 11 52 57 49 
Route #2: 40 59 18 23 
Route #3: 14 29 38 
Route #4: 4 30 43 
Route #5: 9 50 27 22 
Route #6: 28 53 44 36 
Route #7: 21 5 8 51 
Route #8: 32 45 12 3 
Route #9: 24 58 39 42 
Route #10: 33 17 54 35 
Route #11: 46 48 7 15 
Route #12: 2 6 19 55 13 
Route #13: 10 16 41 20 
Route #14: 56 34 25 26 
Route #15: 31 47 37 1 
cost -1
